50

98 1 297
96 25 415
95 11 306
94 17 435
92 17 319
89 15 283
88 3 369
88 27 406
87 27 363
87 2 364
86 8 262
85 5 290
83 21 421
80 1 401
80 22 270
77 12 308
76 21 392
76 21 322
73 17 405
72 17 373
71 12 267
69 16 363
69 18 342
69 20 418
57 7 437
57 18 308
53 3 323
50 3 320
45 14 265
45 9 439
44 8 410
44 12 381
43 6 350
42 10 448
37 7 167
36 8 434
36 5 123
35 4 189
35 7 424
34 2 254
33 10 145
31 10 445
30 7 229
27 7 430
24 2 385
24 1 165
23 3 287
21 1 134
20 2 227
20 2 385
